3 100 1751 6 8 6 6 5 2 9 10 9 11
0 35.0 35.0 0.0 0.0 0 230
2 41.0 49.0 10.0 10.0 0 51 102 153 204 1 15 0 1 0 1 0 0 1 0 0 0
3 35.0 17.0 10.0 7.0 0 50.5 101 151.5 202 1 9 0 0 1 0 0 0 0 0 0 0
4 55.0 45.0 10.0 13.0 0 49.2 98.5 147.8 197 1 6 0 0 0 0 0 1 0 0 0 0
5 55.0 20.0 10.0 19.0 139 146.5 154 161.5 169 1 85 0 0 0 0 0 0 0 1 0 1
6 15.0 30.0 10.0 26.0 0 49.8 99.5 149.2 199 0 78 0 0 0 0 0 0 0 0 0 1
7 25.0 30.0 10.0 3.0 0 52 104 156 208 1 90 0 0 0 0 0 0 0 0 0 0
8 20.0 50.0 10.0 5.0 0 49.5 99 148.5 198 1 43 0 0 0 0 0 0 0 0 0 0
9 10.0 43.0 10.0 9.0 85 92.5 100 107.5 115 1 58 1 0 0 0 0 1 0 0 0 0
10 55.0 60.0 10.0 16.0 87 94.5 102 109.5 117 1 66 0 1 0 0 0 0 0 0 0 0
11 30.0 60.0 10.0 16.0 0 48.5 97 145.5 194 0 3 0 0 0 1 1 0 0 0 0 0
12 20.0 65.0 10.0 12.0 57 64.5 72 79.5 87 1 20 0 0 0 0 0 0 1 0 1 0
13 50.0 35.0 10.0 19.0 0 51.2 102.5 153.8 205 0 84 0 0 0 0 1 0 0 0 1 0
14 30.0 25.0 10.0 23.0 149 156.5 164 171.5 179 1 78 1 0 0 0 0 0 0 1 0 1
15 15.0 10.0 10.0 20.0 0 46.8 93.5 140.2 187 1 87 0 0 0 1 0 1 0 0 0 0
16 30.0 5.0 10.0 8.0 51 58.5 66 73.5 81 1 44 0 0 0 0 0 1 0 0 0 0
17 10.0 20.0 10.0 19.0 0 47.5 95 142.5 190 1 45 0 0 1 1 0 0 0 0 1 1
18 5.0 30.0 10.0 2.0 0 47.2 94.5 141.8 189 1 31 0 0 0 0 1 1 0 1 0 1
19 20.0 40.0 10.0 12.0 0 51 102 153 204 1 39 0 0 1 0 0 1 0 0 1 0
20 15.0 60.0 10.0 17.0 0 46.8 93.5 140.2 187 1 34 0 0 1 0 0 0 1 1 0 0
21 45.0 65.0 10.0 9.0 0 47 94 141 188 1 77 0 0 0 0 0 0 0 0 0 0
22 45.0 20.0 10.0 11.0 0 50.2 100.5 150.8 201 1 63 0 0 0 0 1 1 0 0 0 0
23 45.0 10.0 10.0 18.0 0 48.2 96.5 144.8 193 1 18 0 1 0 0 0 0 1 0 0 0
24 55.0 5.0 10.0 29.0 58 65.5 73 80.5 88 1 4 0 0 0 1 0 0 0 0 0 0
25 65.0 35.0 10.0 3.0 0 47.5 95 142.5 190 1 81 0 0 0 0 0 1 0 0 0 0
26 65.0 20.0 10.0 6.0 156 163.5 171 178.5 186 1 98 1 0 0 0 0 1 0 0 0 0
27 45.0 30.0 10.0 17.0 0 52 104 156 208 1 20 0 1 0 0 0 0 0 0 1 0
28 35.0 40.0 10.0 16.0 0 53.8 107.5 161.2 215 0 46 0 1 0 1 0 0 1 1 0 0
29 41.0 37.0 10.0 16.0 0 53.2 106.5 159.8 213 1 34 0 0 0 0 0 0 0 1 0 1
30 64.0 42.0 10.0 9.0 0 47.5 95 142.5 190 1 79 0 0 0 1 1 0 1 0 0 1
31 40.0 60.0 10.0 21.0 0 48.5 97 145.5 194 0 81 0 0 0 0 1 0 0 1 1 0
32 31.0 52.0 10.0 27.0 0 50.5 101 151.5 202 0 51 0 1 0 0 0 0 0 0 0 1
33 35.0 69.0 10.0 23.0 0 46.5 93 139.5 186 1 47 0 1 0 0 0 0 0 0 0 1
34 53.0 52.0 10.0 11.0 0 48.8 97.5 146.2 195 1 53 0 1 1 0 0 0 0 0 0 1
35 65.0 55.0 10.0 14.0 0 45.8 91.5 137.2 183 1 85 0 1 0 0 1 0 0 0 0 0
36 63.0 65.0 10.0 8.0 0 44.5 89 133.5 178 1 19 0 0 1 0 1 0 0 0 0 1
37 2.0 60.0 10.0 5.0 0 44.5 89 133.5 178 1 48 0 0 1 0 0 0 1 0 0 0
38 20.0 20.0 10.0 8.0 0 49.5 99 148.5 198 1 81 0 0 0 0 0 0 0 0 0 0
39 5.0 5.0 10.0 16.0 73 80.5 88 95.5 103 1 86 0 0 1 0 0 0 1 0 0 0
40 60.0 12.0 10.0 31.0 0 46.5 93 139.5 186 1 32 1 1 0 0 0 0 1 0 0 0
41 40.0 25.0 10.0 9.0 0 52 104 156 208 1 37 0 0 0 0 1 0 0 0 0 1
42 42.0 7.0 10.0 5.0 0 47.8 95.5 143.2 191 1 41 0 0 1 0 0 0 1 0 0 0
43 24.0 12.0 10.0 5.0 0 48.5 97 145.5 194 1 6 0 0 0 0 0 1 0 0 1 1
44 23.0 3.0 10.0 7.0 0 46.2 92.5 138.8 185 1 82 0 0 1 0 1 0 1 0 0 1
45 11.0 14.0 10.0 18.0 59 66.5 74 81.5 89 0 54 0 0 0 0 0 0 0 0 1 0
46 6.0 38.0 10.0 16.0 0 47.5 95 142.5 190 1 59 1 0 0 0 0 0 0 0 1 0
47 2.0 48.0 10.0 1.0 0 46 92 138 184 1 66 0 0 0 1 0 0 1 1 0 0
48 8.0 56.0 10.0 27.0 0 46.2 92.5 138.8 185 0 45 0 0 0 0 0 0 0 0 0 0
49 13.0 52.0 10.0 36.0 0 48 96 144 192 1 77 1 0 0 0 0 0 0 0 0 0
50 6.0 68.0 10.0 30.0 0 44 88 132 176 0 12 0 0 0 0 0 0 0 1 0 0
51 47.0 47.0 10.0 13.0 0 50.8 101.5 152.2 203 1 76 0 1 0 0 0 0 0 0 0 0
52 49.0 58.0 10.0 10.0 0 48.2 96.5 144.8 193 1 37 1 0 0 0 1 0 0 0 0 0
53 27.0 43.0 10.0 9.0 0 52 104 156 208 1 71 0 0 0 0 0 1 0 0 1 0
54 37.0 31.0 10.0 14.0 85 92.5 100 107.5 115 1 29 0 1 1 0 0 0 0 1 1 0
55 57.0 29.0 10.0 18.0 0 49.2 98.5 147.8 197 0 41 0 0 0 0 0 0 0 1 0 0
56 63.0 23.0 10.0 2.0 126 133.5 141 148.5 156 1 18 1 1 1 0 0 0 0 1 0 1
57 53.0 12.0 10.0 6.0 0 47.5 95 142.5 190 1 20 0 0 1 0 1 1 0 0 0 0
58 32.0 12.0 10.0 7.0 0 49 98 147 196 1 44 0 0 0 1 0 0 0 0 0 0
59 36.0 26.0 10.0 18.0 180 187.5 195 202.5 210 1 2 0 0 0 0 0 0 0 0 0 0
60 21.0 24.0 10.0 28.0 0 50.5 101 151.5 202 0 60 0 0 0 0 0 0 1 0 0 0
61 17.0 34.0 10.0 3.0 0 50.2 100.5 150.8 201 1 7 1 0 1 0 0 0 0 0 1 0
62 12.0 24.0 10.0 13.0 0 48.5 97 145.5 194 1 76 0 0 0 1 0 1 1 0 0 0
63 24.0 58.0 10.0 19.0 48 55.5 63 70.5 78 1 62 1 1 0 0 0 1 0 0 0 0
64 27.0 69.0 10.0 10.0 0 46.2 92.5 138.8 185 1 18 0 0 0 0 0 0 0 0 0 0
65 15.0 77.0 10.0 9.0 0 43.2 86.5 129.8 173 1 93 0 0 1 0 0 0 1 0 0 0
66 62.0 77.0 10.0 20.0 0 42.5 85 127.5 170 1 46 1 0 1 0 0 0 0 0 0 1
67 49.0 73.0 10.0 25.0 0 44.8 89.5 134.2 179 1 98 0 0 0 0 0 0 0 0 0 0
68 67.0 5.0 10.0 25.0 73 80.5 88 95.5 103 0 54 0 0 0 0 0 0 0 1 0 0
69 56.0 39.0 10.0 36.0 0 49.5 99 148.5 198 0 98 0 1 1 1 0 0 0 1 1 0
70 37.0 47.0 10.0 6.0 40 47.5 55 62.5 70 1 20 1 1 0 0 0 0 0 0 0 1
71 37.0 56.0 10.0 5.0 0 49.5 99 148.5 198 1 42 0 0 0 0 0 1 1 0 0 0
72 57.0 68.0 10.0 15.0 0 45 90 135 180 1 44 1 0 0 0 1 0 0 0 0 0
73 47.0 16.0 10.0 25.0 0 49.2 98.5 147.8 197 1 89 0 0 0 0 1 0 0 0 0 1
74 44.0 17.0 10.0 9.0 0 49.8 99.5 149.2 199 1 0 1 0 0 0 0 0 0 0 0 0
75 46.0 13.0 10.0 8.0 139 146.5 154 161.5 169 1 24 0 0 0 0 0 0 0 0 0 0
76 49.0 11.0 10.0 18.0 0 48 96 144 192 0 32 1 0 1 0 0 0 0 0 1 0
77 49.0 42.0 10.0 13.0 63 70.5 78 85.5 93 1 82 0 0 0 1 0 1 1 1 0 0
78 53.0 43.0 10.0 14.0 169 176.5 184 191.5 199 1 2 1 0 0 1 1 0 1 1 0 0
79 61.0 52.0 10.0 3.0 0 47 94 141 188 1 65 0 1 0 0 1 0 0 0 1 0
80 57.0 48.0 10.0 23.0 82 89.5 97 104.5 112 1 67 0 0 0 0 0 0 0 0 0 0
81 56.0 37.0 10.0 6.0 0 49.5 99 148.5 198 1 71 0 0 0 1 0 0 0 0 0 1
82 55.0 54.0 10.0 26.0 0 48 96 144 192 1 43 0 0 0 0 0 0 0 0 0 0
83 15.0 47.0 10.0 16.0 0 49 98 147 196 1 79 0 0 0 0 0 0 1 0 0 1
84 14.0 37.0 10.0 11.0 0 49.5 99 148.5 198 1 50 0 1 0 0 0 1 0 0 0 1
85 11.0 31.0 10.0 7.0 91 98.5 106 113.5 121 1 58 0 0 1 0 1 0 0 0 0 0
86 16.0 22.0 10.0 41.0 0 49 98 147 196 0 90 0 0 1 0 0 0 1 0 1 0
87 4.0 18.0 10.0 35.0 0 46 92 138 184 1 22 0 1 0 0 0 1 1 0 0 1
88 28.0 18.0 10.0 26.0 83 90.5 98 105.5 113 1 93 0 0 1 1 0 0 0 0 0 0
89 26.0 52.0 10.0 9.0 0 50 100 150 200 1 43 0 0 0 0 0 0 0 0 0 0
90 26.0 35.0 10.0 15.0 0 52.8 105.5 158.2 211 0 13 0 0 0 0 0 0 0 0 0 1
91 31.0 67.0 10.0 3.0 0 46.8 93.5 140.2 187 1 60 0 0 0 0 0 0 0 0 0 0
92 15.0 19.0 10.0 1.0 0 48.5 97 145.5 194 1 11 0 0 0 0 0 0 0 0 0 0
93 22.0 22.0 10.0 2.0 18 25.5 33 40.5 48 1 53 0 0 0 0 0 0 0 0 0 1
94 18.0 24.0 10.0 22.0 0 49.8 99.5 149.2 199 0 53 0 0 0 1 0 0 0 0 0 0
95 26.0 27.0 10.0 27.0 0 51.8 103.5 155.2 207 1 70 1 1 1 0 0 0 1 0 1 0
96 25.0 24.0 10.0 20.0 0 51.2 102.5 153.8 205 0 75 1 0 0 0 0 0 1 0 0 0
97 22.0 27.0 10.0 11.0 0 51 102 153 204 1 92 0 0 0 0 1 0 1 1 1 0
98 25.0 21.0 10.0 12.0 0 50.5 101 151.5 202 1 11 0 1 1 0 0 0 0 0 0 0
99 19.0 21.0 10.0 10.0 0 49.5 99 148.5 198 1 44 0 0 0 0 0 1 0 0 0 0
100 20.0 26.0 10.0 9.0 73 80.5 88 95.5 103 1 56 0 1 0 0 1 0 0 0 0 0
101 18.0 18.0 10.0 17.0 165 172.5 180 187.5 195 1 39 0 0 1 0 0 1 1 0 0 0
